c description: Random 3-CNF over 22 variables and 94 clauses
c generator: CNFgen (0.9.2)
c copyright: (C) 2012-2022 Massimo Lauria <massimo.lauria@uniroma1.it>
c url: https://massimolauria.net/cnfgen
c command line: cnfgen --output CNF_4.28/22_bit_94_619.cnf randkcnf 3 22 94
c
p cnf 22 94
-5 13 -15 0
-9 13 -17 0
6 12 -20 0
7 9 19 0
9 19 -21 0
-4 -16 21 0
-3 5 -18 0
-10 -16 22 0
1 4 -13 0
-1 -13 -15 0
2 -7 11 0
-8 -9 -18 0
1 -4 -5 0
-6 -21 22 0
1 5 -20 0
2 10 -12 0
-8 9 -10 0
13 15 -19 0
2 -5 -11 0
1 3 6 0
-10 -13 -15 0
-1 8 -22 0
-7 20 21 0
-4 7 -12 0
10 14 -17 0
8 10 19 0
-6 11 -19 0
14 19 -21 0
-1 -4 -7 0
4 10 11 0
11 13 16 0
-2 -9 -13 0
-4 -19 20 0
-12 19 -22 0
10 -12 -13 0
4 -5 -12 0
-1 -17 -21 0
-15 17 22 0
-3 5 8 0
2 11 15 0
12 14 16 0
9 11 -22 0
-2 19 -21 0
-7 -8 -18 0
1 -10 12 0
-10 -12 -15 0
-3 -13 14 0
-3 13 14 0
-3 8 -15 0
3 6 -22 0
-5 10 -13 0
-1 -7 -18 0
-2 -12 -13 0
-4 11 -22 0
-4 8 18 0
-7 16 -17 0
7 8 -13 0
7 9 -16 0
-6 12 19 0
5 6 -9 0
-3 6 -17 0
11 17 19 0
11 -14 20 0
-4 -10 -19 0
-2 8 -17 0
2 -15 -18 0
-4 -9 -11 0
1 7 14 0
1 4 -10 0
-3 -5 10 0
7 -11 -17 0
-4 -10 13 0
1 -19 22 0
-4 -5 20 0
-3 4 16 0
-4 -8 -14 0
-1 2 -15 0
-9 -12 -15 0
6 -9 10 0
4 -8 -14 0
-6 12 -17 0
3 10 -21 0
5 7 -15 0
-3 13 -15 0
-2 -4 -14 0
-7 -13 15 0
1 -11 16 0
-1 2 -12 0
-1 8 -13 0
-8 -10 14 0
10 12 22 0
6 17 21 0
8 -17 -22 0
2 11 -22 0
